20190630 59700.00 50900.00
20171231 59700.00 49700.00
20170630 59719.68 49464.82
20170519 37324.80 30922.30
20170209 37324.80 30922.30
20160630 34560.00 30394.34
20151231 34560.00 30312.38
20150817 34560.00 29713.74
